p cnf 42 41
1 2 3 4 5 0
-2 -3 0
-2 -4 0
8 9 0
-1 0
-5 0
-3 -7 0
-3 10 0
-4 -8 0
-7 11 0
-4 -9 0
-4 -6 12 0
-37 0
-38 -42 0
-39 -41 0
-39 -42 0
-40 -41 0
-40 -42 0
-41 -42 0
-22 -1 0
-22 -7 0
-22 -9 0
-22 -15 0
-36 -29 0
-33 -30 0
-41 -29 0
-40 -32 0
-38 -33 0
-39 -34 0
-40 -35 0
-41 -36 0
-2 -8 0
-4 -8 0
-8 27 0
-12 30 0
-8 -10 0
-8 -13 0
-8 -9 0
-8 -14 32 0
-16 34 0
-22 40 0
